NAME : pr226.141600.tour
COMMENT : Length = 141600
COMMENT : Found by LKH [Keld Helsgaun] Mon Nov 19 06:10:46 2018
TYPE : TOUR
DIMENSION : 230
TOUR_SECTION
1
2
3
4
5
6
7
11
12
13
71
72
86
85
84
83
82
81
80
79
78
77
76
75
74
73
230
226
225
224
223
222
221
220
219
218
217
216
215
214
213
212
211
210
209
208
207
206
205
204
203
202
201
200
199
198
197
196
195
194
193
192
191
132
125
124
130
131
123
122
129
127
121
120
128
126
119
228
8
68
67
65
63
62
61
60
59
58
57
56
55
54
53
52
51
50
49
48
33
32
31
36
45
46
44
37
38
35
34
30
29
28
27
26
25
24
23
22
21
20
19
18
17
16
15
14
10
9
227
133
134
135
136
190
189
188
187
186
185
184
183
182
181
180
179
178
177
176
175
174
173
172
171
170
169
168
167
166
165
164
163
162
161
160
159
158
157
156
155
154
153
152
151
41
40
39
42
43
47
229
69
70
66
64
95
87
89
96
97
88
90
98
99
91
92
100
101
93
94
102
144
146
145
147
149
148
150
143
142
141
140
139
138
137
109
110
118
117
116
108
107
115
114
106
104
113
112
105
103
111
-1
EOF
